NAME : block_19.136530.tour
COMMENT : Length = 136530
COMMENT : Found by LKH-3 [Keld Helsgaun] Wed Apr 22 15:46:12 2026
TYPE : TOUR
DIMENSION : 40
TOUR_SECTION
35
29
23
16
10
4
5
11
17
24
30
36
37
31
25
18
12
6
3
7
13
19
26
32
38
39
33
27
20
14
8
9
15
22
21
28
34
2
40
1
-1
EOF
